784 1568
1 2 2
1 29 1
2 3 1
2 30 4
3 4 2
3 31 2
4 5 2
4 32 1
5 6 2
5 33 2
6 7 1
6 34 5
7 8 4
7 35 5
8 9 4
8 36 1
9 10 5
9 37 4
10 11 3
10 38 1
11 12 5
11 39 1
12 13 3
12 40 4
13 14 4
13 41 4
14 15 2
14 42 1
15 16 2
15 43 1
16 17 5
16 44 3
17 18 5
17 45 3
18 19 3
18 46 4
19 20 4
19 47 3
20 21 4
20 48 5
21 22 1
21 49 1
22 23 3
22 50 1
23 24 1
23 51 1
24 25 2
24 52 1
25 26 4
25 53 5
26 27 2
26 54 1
27 28 2
27 55 4
28 56 4
29 30 2
29 57 5
30 31 2
30 58 5
31 32 3
31 59 3
32 33 3
32 60 3
33 34 3
33 61 3
34 35 5
34 62 5
35 36 3
35 63 1
36 37 3
36 64 4
37 38 4
37 65 2
38 39 1
38 66 2
39 40 4
39 67 3
40 41 1
40 68 5
41 42 4
41 69 1
42 43 5
42 70 5
43 44 4
43 71 1
44 45 1
44 72 3
45 46 3
45 73 5
46 47 5
46 74 4
47 48 5
47 75 4
48 49 5
48 76 5
49 50 5
49 77 2
50 51 5
50 78 3
51 52 3
51 79 1
52 53 3
52 80 2
53 54 3
53 81 4
54 55 1
54 82 4
55 56 1
55 83 5
56 84 2
57 58 2
57 85 1
58 59 2
58 86 4
59 60 4
59 87 1
60 61 2
60 88 3
61 62 2
61 89 1
62 63 5
62 90 5
63 64 5
63 91 2
64 65 1
64 92 3
65 66 4
65 93 5
66 67 5
66 94 5
67 68 2
67 95 1
68 69 2
68 96 5
69 70 4
69 97 2
70 71 4
70 98 4
71 72 3
71 99 5
72 73 3
72 100 2
73 74 1
73 101 5
74 75 3
74 102 4
75 76 2
75 103 4
76 77 4
76 104 4
77 78 2
77 105 2
78 79 1
78 106 1
79 80 4
79 107 2
80 81 4
80 108 2
81 82 4
81 109 2
82 83 3
82 110 4
83 84 5
83 111 2
84 112 4
85 86 5
85 113 1
86 87 2
86 114 1
87 88 5
87 115 4
88 89 1
88 116 5
89 90 1
89 117 3
90 91 2
90 118 4
91 92 1
91 119 3
92 93 3
92 120 4
93 94 5
93 121 1
94 95 1
94 122 2
95 96 4
95 123 2
96 97 2
96 124 5
97 98 2
97 125 4
98 99 3
98 126 1
99 100 3
99 127 2
100 101 5
100 128 1
101 102 3
101 129 5
102 103 1
102 130 1
103 104 4
103 131 4
104 105 3
104 132 2
105 106 2
105 133 3
106 107 2
106 134 5
107 108 5
107 135 2
108 109 5
108 136 5
109 110 2
109 137 1
110 111 4
110 138 2
111 112 5
111 139 3
112 140 3
113 114 5
113 141 3
114 115 1
114 142 1
115 116 3
115 143 3
116 117 1
116 144 2
117 118 3
117 145 2
118 119 3
118 146 5
119 120 2
119 147 3
120 121 2
120 148 2
121 122 4
121 149 2
122 123 1
122 150 1
123 124 1
123 151 5
124 125 1
124 152 2
125 126 2
125 153 1
126 127 4
126 154 5
127 128 4
127 155 1
128 129 4
128 156 3
129 130 1
129 157 3
130 131 4
130 158 3
131 132 4
131 159 1
132 133 5
132 160 2
133 134 4
133 161 2
134 135 1
134 162 4
135 136 3
135 163 2
136 137 5
136 164 4
137 138 1
137 165 2
138 139 2
138 166 2
139 140 4
139 167 5
140 168 1
141 142 2
141 169 5
142 143 2
142 170 2
143 144 4
143 171 4
144 145 2
144 172 3
145 146 5
145 173 4
146 147 5
146 174 5
147 148 3
147 175 3
148 149 4
148 176 3
149 150 2
149 177 2
150 151 1
150 178 4
151 152 2
151 179 1
152 153 5
152 180 3
153 154 4
153 181 4
154 155 4
154 182 1
155 156 5
155 183 5
156 157 5
156 184 5
157 158 3
157 185 5
158 159 3
158 186 5
159 160 1
159 187 1
160 161 4
160 188 4
161 162 5
161 189 4
162 163 4
162 190 1
163 164 1
163 191 1
164 165 1
164 192 3
165 166 1
165 193 4
166 167 1
166 194 1
167 168 5
167 195 1
168 196 2
169 170 1
169 197 1
170 171 3
170 198 5
171 172 1
171 199 1
172 173 4
172 200 2
173 174 1
173 201 5
174 175 2
174 202 1
175 176 3
175 203 3
176 177 2
176 204 2
177 178 3
177 205 1
178 179 1
178 206 2
179 180 4
179 207 4
180 181 5
180 208 5
181 182 3
181 209 2
182 183 1
182 210 5
183 184 5
183 211 2
184 185 1
184 212 1
185 186 1
185 213 1
186 187 4
186 214 5
187 188 2
187 215 2
188 189 1
188 216 1
189 190 2
189 217 1
190 191 3
190 218 5
191 192 3
191 219 4
192 193 2
192 220 1
193 194 1
193 221 4
194 195 4
194 222 2
195 196 3
195 223 1
196 224 5
197 198 5
197 225 3
198 199 2
198 226 3
199 200 4
199 227 5
200 201 1
200 228 4
201 202 2
201 229 2
202 203 2
202 230 5
203 204 4
203 231 5
204 205 3
204 232 1
205 206 5
205 233 4
206 207 4
206 234 3
207 208 1
207 235 5
208 209 3
208 236 1
209 210 3
209 237 4
210 211 2
210 238 3
211 212 3
211 239 3
212 213 5
212 240 3
213 214 5
213 241 1
214 215 4
214 242 1
215 216 4
215 243 4
216 217 5
216 244 5
217 218 3
217 245 2
218 219 2
218 246 1
219 220 1
219 247 2
220 221 2
220 248 2
221 222 3
221 249 5
222 223 1
222 250 4
223 224 4
223 251 3
224 252 1
225 226 2
225 253 4
226 227 5
226 254 2
227 228 5
227 255 1
228 229 1
228 256 4
229 230 5
229 257 4
230 231 2
230 258 4
231 232 3
231 259 5
232 233 2
232 260 2
233 234 1
233 261 1
234 235 5
234 262 3
235 236 2
235 263 1
236 237 1
236 264 1
237 238 1
237 265 1
238 239 3
238 266 2
239 240 5
239 267 4
240 241 2
240 268 4
241 242 3
241 269 1
242 243 3
242 270 2
243 244 4
243 271 3
244 245 3
244 272 4
245 246 5
245 273 2
246 247 3
246 274 2
247 248 2
247 275 5
248 249 4
248 276 5
249 250 2
249 277 5
250 251 3
250 278 2
251 252 4
251 279 2
252 280 1
253 254 1
253 281 5
254 255 3
254 282 2
255 256 3
255 283 4
256 257 2
256 284 4
257 258 5
257 285 2
258 259 5
258 286 3
259 260 5
259 287 4
260 261 5
260 288 2
261 262 1
261 289 5
262 263 2
262 290 5
263 264 2
263 291 2
264 265 3
264 292 4
265 266 3
265 293 1
266 267 5
266 294 2
267 268 4
267 295 3
268 269 2
268 296 1
269 270 5
269 297 4
270 271 4
270 298 4
271 272 4
271 299 3
272 273 2
272 300 4
273 274 3
273 301 5
274 275 1
274 302 2
275 276 2
275 303 3
276 277 5
276 304 5
277 278 2
277 305 5
278 279 1
278 306 2
279 280 3
279 307 5
280 308 5
281 282 2
281 309 2
282 283 4
282 310 3
283 284 1
283 311 5
284 285 4
284 312 3
285 286 1
285 313 4
286 287 1
286 314 1
287 288 3
287 315 2
288 289 3
288 316 5
289 290 3
289 317 5
290 291 4
290 318 3
291 292 1
291 319 4
292 293 2
292 320 3
293 294 4
293 321 4
294 295 4
294 322 2
295 296 1
295 323 1
296 297 1
296 324 1
297 298 1
297 325 3
298 299 4
298 326 5
299 300 4
299 327 3
300 301 1
300 328 4
301 302 1
301 329 1
302 303 5
302 330 5
303 304 5
303 331 4
304 305 3
304 332 5
305 306 4
305 333 3
306 307 1
306 334 2
307 308 5
307 335 2
308 336 4
309 310 2
309 337 1
310 311 1
310 338 3
311 312 3
311 339 2
312 313 4
312 340 3
313 314 5
313 341 4
314 315 1
314 342 3
315 316 2
315 343 3
316 317 2
316 344 3
317 318 2
317 345 1
318 319 3
318 346 5
319 320 2
319 347 5
320 321 2
320 348 1
321 322 2
321 349 1
322 323 2
322 350 5
323 324 2
323 351 1
324 325 2
324 352 3
325 326 3
325 353 2
326 327 2
326 354 5
327 328 2
327 355 1
328 329 1
328 356 1
329 330 3
329 357 4
330 331 4
330 358 1
331 332 3
331 359 4
332 333 1
332 360 2
333 334 2
333 361 3
334 335 5
334 362 1
335 336 4
335 363 5
336 364 2
337 338 3
337 365 5
338 339 5
338 366 2
339 340 5
339 367 4
340 341 1
340 368 3
341 342 5
341 369 2
342 343 2
342 370 5
343 344 3
343 371 3
344 345 5
344 372 5
345 346 1
345 373 4
346 347 5
346 374 4
347 348 1
347 375 4
348 349 4
348 376 2
349 350 2
349 377 3
350 351 5
350 378 5
351 352 2
351 379 5
352 353 3
352 380 4
353 354 2
353 381 5
354 355 2
354 382 1
355 356 1
355 383 1
356 357 1
356 384 1
357 358 2
357 385 2
358 359 1
358 386 5
359 360 3
359 387 1
360 361 3
360 388 2
361 362 5
361 389 3
362 363 5
362 390 1
363 364 2
363 391 3
364 392 4
365 366 3
365 393 2
366 367 3
366 394 5
367 368 1
367 395 4
368 369 3
368 396 4
369 370 4
369 397 2
370 371 1
370 398 5
371 372 2
371 399 2
372 373 4
372 400 5
373 374 2
373 401 4
374 375 2
374 402 5
375 376 5
375 403 1
376 377 2
376 404 1
377 378 3
377 405 2
378 379 2
378 406 2
379 380 1
379 407 3
380 381 1
380 408 2
381 382 1
381 409 3
382 383 3
382 410 3
383 384 3
383 411 4
384 385 5
384 412 3
385 386 5
385 413 2
386 387 5
386 414 2
387 388 3
387 415 5
388 389 4
388 416 5
389 390 2
389 417 1
390 391 4
390 418 1
391 392 2
391 419 5
392 420 4
393 394 5
393 421 2
394 395 5
394 422 5
395 396 3
395 423 4
396 397 3
396 424 3
397 398 1
397 425 4
398 399 5
398 426 2
399 400 3
399 427 1
400 401 5
400 428 5
401 402 3
401 429 5
402 403 1
402 430 3
403 404 4
403 431 1
404 405 5
404 432 5
405 406 3
405 433 1
406 407 2
406 434 2
407 408 1
407 435 5
408 409 2
408 436 1
409 410 3
409 437 5
410 411 1
410 438 1
411 412 1
411 439 3
412 413 2
412 440 1
413 414 4
413 441 5
414 415 3
414 442 5
415 416 5
415 443 3
416 417 4
416 444 4
417 418 4
417 445 1
418 419 3
418 446 5
419 420 1
419 447 4
420 448 3
421 422 5
421 449 2
422 423 5
422 450 3
423 424 5
423 451 4
424 425 1
424 452 2
425 426 5
425 453 3
426 427 5
426 454 3
427 428 4
427 455 1
428 429 2
428 456 5
429 430 4
429 457 5
430 431 2
430 458 4
431 432 2
431 459 5
432 433 4
432 460 1
433 434 2
433 461 4
434 435 1
434 462 5
435 436 3
435 463 5
436 437 3
436 464 3
437 438 2
437 465 4
438 439 2
438 466 4
439 440 3
439 467 2
440 441 4
440 468 4
441 442 2
441 469 4
442 443 1
442 470 2
443 444 4
443 471 1
444 445 1
444 472 5
445 446 1
445 473 4
446 447 1
446 474 2
447 448 5
447 475 1
448 476 4
449 450 3
449 477 3
450 451 3
450 478 1
451 452 5
451 479 5
452 453 4
452 480 2
453 454 5
453 481 5
454 455 2
454 482 3
455 456 3
455 483 2
456 457 4
456 484 3
457 458 4
457 485 3
458 459 1
458 486 5
459 460 1
459 487 4
460 461 5
460 488 5
461 462 2
461 489 1
462 463 4
462 490 2
463 464 3
463 491 1
464 465 1
464 492 3
465 466 5
465 493 4
466 467 2
466 494 2
467 468 4
467 495 1
468 469 1
468 496 5
469 470 3
469 497 3
470 471 4
470 498 2
471 472 2
471 499 1
472 473 1
472 500 5
473 474 3
473 501 3
474 475 3
474 502 4
475 476 1
475 503 2
476 504 4
477 478 5
477 505 5
478 479 2
478 506 4
479 480 3
479 507 3
480 481 2
480 508 2
481 482 4
481 509 4
482 483 3
482 510 2
483 484 3
483 511 1
484 485 1
484 512 4
485 486 4
485 513 4
486 487 1
486 514 4
487 488 5
487 515 4
488 489 4
488 516 1
489 490 1
489 517 2
490 491 1
490 518 5
491 492 3
491 519 2
492 493 2
492 520 3
493 494 2
493 521 3
494 495 2
494 522 5
495 496 1
495 523 4
496 497 2
496 524 4
497 498 3
497 525 2
498 499 3
498 526 2
499 500 3
499 527 4
500 501 4
500 528 2
501 502 4
501 529 3
502 503 4
502 530 2
503 504 3
503 531 5
504 532 2
505 506 1
505 533 2
506 507 3
506 534 4
507 508 5
507 535 2
508 509 4
508 536 1
509 510 2
509 537 5
510 511 5
510 538 4
511 512 4
511 539 1
512 513 1
512 540 3
513 514 4
513 541 5
514 515 4
514 542 2
515 516 1
515 543 4
516 517 3
516 544 5
517 518 4
517 545 5
518 519 1
518 546 2
519 520 3
519 547 1
520 521 3
520 548 1
521 522 3
521 549 5
522 523 4
522 550 3
523 524 1
523 551 1
524 525 4
524 552 5
525 526 5
525 553 4
526 527 4
526 554 2
527 528 2
527 555 2
528 529 2
528 556 4
529 530 2
529 557 4
530 531 5
530 558 3
531 532 2
531 559 5
532 560 5
533 534 5
533 561 2
534 535 3
534 562 2
535 536 2
535 563 2
536 537 1
536 564 4
537 538 2
537 565 4
538 539 4
538 566 1
539 540 1
539 567 3
540 541 3
540 568 4
541 542 5
541 569 4
542 543 5
542 570 2
543 544 5
543 571 3
544 545 4
544 572 1
545 546 3
545 573 5
546 547 3
546 574 2
547 548 4
547 575 3
548 549 5
548 576 2
549 550 5
549 577 1
550 551 3
550 578 4
551 552 3
551 579 2
552 553 2
552 580 5
553 554 2
553 581 1
554 555 3
554 582 2
555 556 2
555 583 2
556 557 3
556 584 1
557 558 1
557 585 2
558 559 4
558 586 4
559 560 3
559 587 4
560 588 1
561 562 4
561 589 1
562 563 1
562 590 1
563 564 2
563 591 3
564 565 2
564 592 2
565 566 2
565 593 2
566 567 4
566 594 2
567 568 5
567 595 5
568 569 5
568 596 2
569 570 5
569 597 3
570 571 5
570 598 2
571 572 1
571 599 2
572 573 1
572 600 5
573 574 2
573 601 3
574 575 4
574 602 3
575 576 3
575 603 3
576 577 1
576 604 3
577 578 3
577 605 4
578 579 3
578 606 1
579 580 4
579 607 4
580 581 3
580 608 5
581 582 2
581 609 2
582 583 1
582 610 5
583 584 1
583 611 4
584 585 2
584 612 5
585 586 1
585 613 4
586 587 1
586 614 5
587 588 1
587 615 2
588 616 5
589 590 4
589 617 3
590 591 1
590 618 2
591 592 5
591 619 1
592 593 2
592 620 2
593 594 3
593 621 3
594 595 5
594 622 5
595 596 4
595 623 5
596 597 3
596 624 5
597 598 1
597 625 1
598 599 4
598 626 1
599 600 2
599 627 4
600 601 3
600 628 4
601 602 3
601 629 4
602 603 3
602 630 1
603 604 1
603 631 1
604 605 1
604 632 4
605 606 2
605 633 2
606 607 2
606 634 4
607 608 5
607 635 2
608 609 4
608 636 5
609 610 2
609 637 1
610 611 1
610 638 5
611 612 1
611 639 4
612 613 5
612 640 5
613 614 2
613 641 2
614 615 1
614 642 1
615 616 4
615 643 5
616 644 5
617 618 5
617 645 1
618 619 3
618 646 1
619 620 5
619 647 2
620 621 1
620 648 2
621 622 4
621 649 4
622 623 4
622 650 5
623 624 2
623 651 1
624 625 1
624 652 5
625 626 3
625 653 1
626 627 5
626 654 3
627 628 1
627 655 3
628 629 3
628 656 1
629 630 5
629 657 2
630 631 2
630 658 1
631 632 1
631 659 2
632 633 2
632 660 4
633 634 4
633 661 4
634 635 4
634 662 4
635 636 3
635 663 2
636 637 5
636 664 5
637 638 3
637 665 4
638 639 2
638 666 5
639 640 3
639 667 2
640 641 5
640 668 5
641 642 5
641 669 1
642 643 2
642 670 4
643 644 2
643 671 4
644 672 3
645 646 4
645 673 4
646 647 4
646 674 3
647 648 5
647 675 5
648 649 2
648 676 5
649 650 2
649 677 1
650 651 1
650 678 1
651 652 3
651 679 1
652 653 1
652 680 2
653 654 2
653 681 2
654 655 1
654 682 2
655 656 4
655 683 2
656 657 3
656 684 1
657 658 1
657 685 3
658 659 2
658 686 5
659 660 4
659 687 3
660 661 4
660 688 1
661 662 4
661 689 2
662 663 1
662 690 3
663 664 3
663 691 2
664 665 5
664 692 5
665 666 5
665 693 1
666 667 4
666 694 4
667 668 3
667 695 2
668 669 2
668 696 3
669 670 4
669 697 3
670 671 1
670 698 3
671 672 3
671 699 5
672 700 5
673 674 5
673 701 2
674 675 5
674 702 5
675 676 5
675 703 4
676 677 3
676 704 4
677 678 2
677 705 2
678 679 3
678 706 5
679 680 2
679 707 4
680 681 2
680 708 4
681 682 1
681 709 4
682 683 4
682 710 4
683 684 3
683 711 3
684 685 3
684 712 5
685 686 4
685 713 4
686 687 2
686 714 2
687 688 2
687 715 4
688 689 4
688 716 2
689 690 1
689 717 5
690 691 5
690 718 4
691 692 5
691 719 4
692 693 4
692 720 4
693 694 4
693 721 4
694 695 2
694 722 1
695 696 3
695 723 5
696 697 1
696 724 3
697 698 2
697 725 4
698 699 4
698 726 4
699 700 1
699 727 5
700 728 5
701 702 2
701 729 3
702 703 1
702 730 2
703 704 1
703 731 2
704 705 4
704 732 2
705 706 3
705 733 2
706 707 3
706 734 5
707 708 5
707 735 3
708 709 3
708 736 5
709 710 2
709 737 5
710 711 2
710 738 2
711 712 2
711 739 2
712 713 5
712 740 1
713 714 3
713 741 2
714 715 3
714 742 5
715 716 3
715 743 2
716 717 5
716 744 4
717 718 5
717 745 3
718 719 2
718 746 2
719 720 1
719 747 1
720 721 3
720 748 3
721 722 1
721 749 5
722 723 1
722 750 3
723 724 5
723 751 5
724 725 2
724 752 4
725 726 4
725 753 1
726 727 2
726 754 5
727 728 4
727 755 4
728 756 5
729 730 5
729 757 2
730 731 5
730 758 4
731 732 3
731 759 1
732 733 1
732 760 5
733 734 2
733 761 3
734 735 4
734 762 3
735 736 3
735 763 4
736 737 4
736 764 2
737 738 1
737 765 4
738 739 2
738 766 3
739 740 2
739 767 3
740 741 4
740 768 5
741 742 5
741 769 5
742 743 1
742 770 2
743 744 1
743 771 2
744 745 5
744 772 5
745 746 5
745 773 1
746 747 4
746 774 4
747 748 5
747 775 1
748 749 4
748 776 1
749 750 5
749 777 4
750 751 5
750 778 4
751 752 1
751 779 3
752 753 2
752 780 2
753 754 4
753 781 2
754 755 1
754 782 4
755 756 2
755 783 1
756 784 4
757 758 1
758 759 1
759 760 2
760 761 3
761 762 2
762 763 1
763 764 5
764 765 3
765 766 1
766 767 3
767 768 2
768 769 4
769 770 1
770 771 4
771 772 1
772 773 1
773 774 2
774 775 5
775 776 4
776 777 5
777 778 5
778 779 4
779 780 4
780 781 2
781 782 5
782 783 1
783 784 5
1 757 1
2 758 4
3 759 1
4 760 4
5 761 3
6 762 3
7 763 2
8 764 1
9 765 1
10 766 3
11 767 4
12 768 4
13 769 5
14 770 1
15 771 3
16 772 2
17 773 2
18 774 2
19 775 5
20 776 1
21 777 2
22 778 2
23 779 2
24 780 5
25 781 5
26 782 3
27 783 1
28 784 1
1 28 5
29 56 2
57 84 2
85 112 1
113 140 2
141 168 3
169 196 5
197 224 5
225 252 1
253 280 1
281 308 4
309 336 5
337 364 3
365 392 2
393 420 5
421 448 3
449 476 4
477 504 4
505 532 5
533 560 3
561 588 5
589 616 1
617 644 5
645 672 5
673 700 4
701 728 2
729 756 5
757 784 3
